10
Be Br Bu He Ko Lo Ma Pa Pr Rom
0 765 870 1560 430 1090 2315 1050 350 1510
765 0 1360 2040 920 360 1570 310 910 1490
870 1360 0 1950 1305 1720 2520 1485 525 1230
1560 2040 1950 0 1140 2370 3615 2350 1730 2880
430 920 1305 1140 0 1240 2490 1220 780 1905
1090 360 1720 2370 1240 0 1710 460 1270 1860
2315 1570 2520 3615 2490 1710 0 1270 2320 1960
1050 310 1485 2350 1220 460 1270 0 1030 1105
350 910 525 1730 780 1270 2320 1030 0 1310
1510 1490 1230 2880 1905 1860 1960 1105 1310 0
